120
150
46
43
50
44
46
44
41
58
52
52
46
41
41
41
52
40
60
42
48
45
46
59
60
44
46
50
42
58
47
47
56
60
54
40
54
58
46
46
41
54
57
41
55
45
50
44
46
60
53
45
52
40
54
60
58
60
60
56
45
49
55
55
40
52
47
52
56
42
46
45
59
59
50
41
43
54
53
47
45
59
46
46
54
59
43
48
47
44
59
41
54
55
44
57
54
52
44
58
46
46
58
47
45
58
44
49
59
42
54
55
41
41
57
55
49
46
42
48
60
44
